clingo version 5.4.0
Reading from merger/Adrian/merge.lp ...
Solving...
Answer: 1
occurs(object(robot,1),action(move,(-1,0)),1). occurs(object(robot,2),action(move,(0,1)),1). occurs(object(robot,3),action(move,(0,1)),1). occurs(object(robot,4),action(move,(1,0)),1). occurs(object(robot,5),action(move,(0,-1)),1). occurs(object(robot,6),action(move,(0,-1)),1). occurs(object(robot,7),action(move,(0,-1)),1). occurs(object(robot,8),action(move,(0,1)),1). occurs(object(robot,1),action(move,(-1,0)),2). occurs(object(robot,1),action(move,(0,-1)),6). occurs(object(robot,1),action(move,(0,-1)),7). occurs(object(robot,2),action(move,(-1,0)),2). occurs(object(robot,2),action(move,(0,1)),3). occurs(object(robot,2),action(move,(0,1)),4). occurs(object(robot,2),action(move,(0,1)),5). occurs(object(robot,3),action(move,(0,1)),2). occurs(object(robot,3),action(move,(0,1)),3). occurs(object(robot,3),action(move,(1,0)),4). occurs(object(robot,3),action(move,(1,0)),5). occurs(object(robot,3),action(move,(1,0)),6). occurs(object(robot,3),action(move,(1,0)),7). occurs(object(robot,3),action(move,(0,1)),8). occurs(object(robot,4),action(move,(0,1)),2). occurs(object(robot,5),action(move,(0,-1)),2). occurs(object(robot,5),action(move,(-1,0)),3). occurs(object(robot,5),action(move,(-1,0)),4). occurs(object(robot,5),action(move,(-1,0)),6). occurs(object(robot,5),action(move,(-1,0)),7). occurs(object(robot,6),action(move,(1,0)),6). occurs(object(robot,7),action(move,(0,-1)),2). occurs(object(robot,7),action(move,(0,-1)),3). occurs(object(robot,7),action(move,(0,-1)),4). occurs(object(robot,7),action(move,(1,0)),5). occurs(object(robot,7),action(move,(1,0)),6). occurs(object(robot,7),action(move,(1,0)),7). occurs(object(robot,7),action(move,(1,0)),8). occurs(object(robot,7),action(move,(1,0)),9). occurs(object(robot,8),action(move,(1,0)),2). occurs(object(robot,8),action(move,(0,1)),3). occurs(object(robot,8),action(move,(1,0)),4). occurs(object(robot,6),action(move,(0,-1)),4). occurs(object(robot,6),action(move,(1,0)),7). occurs(object(robot,1),action(move,(0,-1)),4). occurs(object(robot,1),action(move,(-1,0)),5). occurs(object(robot,1),action(move,(0,-1)),8). occurs(object(robot,1),action(move,(-1,0)),3). occurs(object(robot,5),action(move,(-1,0)),8). occurs(object(robot,6),action(move,(1,0)),2). occurs(object(robot,5),action(move,(0,1)),5). occurs(object(robot,6),action(move,(0,-1)),5). occurs(object(robot,1),action(move,(1,0)),9). occurs(object(robot,6),action(move,(-1,0)),3). occurs(object(robot,6),action(move,(1,0)),8). occurs(object(robot,5),action(move,(0,-1)),9).
Optimization: 3
OPTIMUM FOUND

Models       : 1
  Optimum    : yes
Optimization : 3
Calls        : 1
Time         : 55.523s (Solving: 1.00s 1st Model: 0.78s Unsat: 0.22s)
CPU Time     : 55.426s
